/* Objective function */
/*
  M  = 200
  x1 = 10
  x2 = 20
  x3 = 30
  e  = 20
*/

min: N1 + N2 + N3;

200 - 200 N1 + 20 >= 10;
 20 - 200 N1      <= 10;
200 - 200 N2 + 20 >= 20;
 20 - 200 N2      <= 20;
200 - 200 N3 + 20 >= 30;
 20 - 200 N3      <= 30;
 
int N1, N2, N3;